project.6.dat
m = 8;

n = 9;

S =
[
  [ 0 0 0 0 0 0 0 0 ]
  [ 1 1 1 0 0 1 0 0 ]
  [ 1 0 0 1 0 1 0 0 ]
  [ 1 0 0 0 1 0 0 0 ]
  [ 1 0 0 1 1 1 1 0 ]
  [ 0 0 0 1 1 1 0 0 ]
  [ 1 0 0 1 0 0 0 1 ]
  [ 0 1 1 1 0 0 0 1 ]
  [ 1 1 0 0 1 1 1 1 ]    
];
