project.6.sol
OBJECTIVE: 26
0 --> 5
5 --> 2
2 --> 4
4 --> 8
8 --> 1
1 --> 7
7 --> 6
6 --> 3
3 --> 0
